[[70, 71, 69, 78, 79, 80, 81, 89, 90, 99, 98, 97, 88, 87, 96, 95, 86, 85, 84, 94], [93, 92, 91, 83, 82, 73, 75, 76, 77, 68, 67, 66, 74, 65, 64, 56, 59, 58], [49, 57, 55, 46, 47, 38, 48, 39, 40, 41, 32, 31, 30, 29, 37, 28, 19, 21, 22, 20, 13], [11, 10, 2, 12, 3, 4, 14, 5, 6, 7, 8, 9, 18, 17, 16, 15, 23, 24], [25, 26, 27, 35, 36, 44, 34, 33, 42, 43, 45, 54, 53, 52, 51, 50, 60, 63, 72, 62, 61]]